etc/upTests/expr2/0001.eprime.solution
language ESSENCE' 1.0
$ minion Nodes: 2
$ minion TotalTime: 0.001078
$ Savile Row TotalTime: 0.647
letting x_SetExplicitVarSize_tuple2 be [2, 9;int(1..2)]
letting x_SetExplicitVarSize_tuple1 be [true, true;int(1..2)]
